c description: Random 3-CNF over 15 variables and 45 clauses
c generator: CNFgen (0.9.0)
c copyright: (C) 2012-2020 Massimo Lauria <massimo.lauria@uniroma1.it>
c url: https://massimolauria.net/cnfgen
c
p cnf 15 45
-7 9 -12 0
7 -8 -9 0
2 -5 7 0
-1 -3 -6 0
1 4 -6 0
-3 8 12 0
4 -6 11 0
-8 9 14 0
-2 -3 4 0
6 11 -13 0
1 -2 4 0
2 5 -10 0
-4 -6 -13 0
-1 -7 15 0
-2 -8 14 0
4 -7 14 0
8 -10 12 0
1 -3 10 0
10 12 15 0
3 7 12 0
1 2 -9 0
5 -13 14 0
3 -11 12 0
2 3 9 0
4 8 12 0
-6 -8 13 0
4 -12 -13 0
4 10 -14 0
-6 7 -9 0
11 12 13 0
-3 -6 8 0
4 5 -8 0
1 7 15 0
-2 -3 -11 0
5 11 -14 0
3 -9 12 0
10 12 -13 0
1 -7 -14 0
-5 -13 15 0
5 6 -14 0
-6 8 13 0
-4 -5 6 0
-13 14 15 0
-3 11 -12 0
-1 -2 -8 0